42
6
0 8 9 15 16 17 19 20 21 23 24 25 26 29 30 31 32 33 34 36 38 41
1 6 7 8 10 16 17 18 20 21 22 23 29 30 31 32 34 38 40 41
2 8 9 10 11 15 17 18 19 21 23 25 26 27 28 29 30 31 32 33 34 35 37 39 40 41
3 7 10 12 13 14 16 17 21 26 29 31 32 38 39
4 8 11 13 14 18 20 22 24 26 36 38 40 41
5 7 31
